min: c;

c = 4.21761075131476 * u3_t10_h0 + 3.52480797621369 * u3_t10_h1 + 3.25928813119766 * u3_t4_h2 + 3.25928813119766 * u3_t10_h2 + 3.21341365233353 * u3_t4_h3 + 3.21341365233353 * u3_t10_h3 + 3.005477626076 * u3_t4_h4 + 3.005477626076 * u3_t10_h4 + 4.09316373943752 * u3_t4_h5 + 4.09316373943752 * u3_t10_h5 + 4.14162461139402 * u3_t4_h6 + 4.14162461139402 * u3_t10_h6 + 3.73405060989698 * u3_t4_h7 + 3.73405060989698 * u3_t9_h7 + 3.73405060989698 * u3_t10_h7 + 5.82650205473827 * u3_t4_h8 + 5.82650205473827 * u3_t9_h8 + 5.0384532544181 * u3_t4_h9 + 5.0384532544181 * u3_t9_h9 + 5.87340315654914 * u3_t4_h10 + 5.87340315654914 * u3_t6_h10 + 5.87340315654914 * u3_t9_h10 + 4.27928250909636 * u3_t3_h11 + 4.27928250909636 * u3_t4_h11 + 4.27928250909636 * u3_t6_h11 + 4.27928250909636 * u3_t9_h11 + 6.1667752484635 * u3_t3_h12 + 6.1667752484635 * u3_t4_h12 + 6.1667752484635 * u3_t6_h12 + 6.1667752484635 * u3_t9_h12 + 4.32707974294564 * u3_t3_h13 + 4.32707974294564 * u3_t4_h13 + 4.32707974294564 * u3_t5_h13 + 4.32707974294564 * u3_t6_h13 + 4.32707974294564 * u3_t9_h13 + 4.99974821869094 * u3_t3_h14 + 4.99974821869094 * u3_t4_h14 + 4.99974821869094 * u3_t5_h14 + 4.99974821869094 * u3_t6_h14 + 4.99974821869094 * u3_t9_h14 + 6.5887521382915 * u3_t2_h15 + 6.5887521382915 * u3_t3_h15 + 6.5887521382915 * u3_t4_h15 + 6.5887521382915 * u3_t5_h15 + 6.5887521382915 * u3_t6_h15 + 6.5887521382915 * u3_t9_h15 + 5.65531439961598 * u3_t2_h16 + 5.65531439961598 * u3_t4_h16 + 5.65531439961598 * u3_t5_h16 + 5.65531439961598 * u3_t6_h16 + 5.65531439961598 * u3_t9_h16 + 6.81046507922116 * u3_t2_h17 + 6.81046507922116 * u3_t4_h17 + 6.81046507922116 * u3_t6_h17 + 6.81046507922116 * u3_t9_h17 + 6.78229254415029 * u3_t2_h18 + 6.78229254415029 * u3_t6_h18 + 6.78229254415029 * u3_t9_h18 + 5.96641193547393 * u3_t2_h19 + 5.96641193547393 * u3_t9_h19 + 5.47445557358605 * u3_t1_h20 + 5.47445557358605 * u3_t2_h20 + 5.47445557358605 * u3_t8_h20 + 5.47445557358605 * u3_t9_h20 + 5.54465447505894 * u3_t1_h21 + 5.54465447505894 * u3_t2_h21 + 5.54465447505894 * u3_t7_h21 + 5.54465447505894 * u3_t8_h21 + 5.54465447505894 * u3_t9_h21 + 5.4102935432139 * u3_t1_h22 + 5.4102935432139 * u3_t7_h22 + 5.4102935432139 * u3_t8_h22 + 4.98423601409188 * u3_t1_h23 + 4.98423601409188 * u3_t7_h23 + 4.98423601409188 * u3_t8_h23;
0 <= u3_t1_h20 <= 1;
0 <= u3_t1_h21 <= 1;
0 <= u3_t1_h22 <= 1;
0 <= u3_t1_h23 <= 1;
u3_t1_h20 + u3_t1_h21 + u3_t1_h22 + u3_t1_h23 = 2;
0 <= u3_t2_h15 <= 1;
0 <= u3_t2_h16 <= 1;
0 <= u3_t2_h17 <= 1;
0 <= u3_t2_h18 <= 1;
0 <= u3_t2_h19 <= 1;
0 <= u3_t2_h20 <= 1;
0 <= u3_t2_h21 <= 1;
u3_t2_h15 + u3_t2_h16 + u3_t2_h17 + u3_t2_h18 + u3_t2_h19 + u3_t2_h20 + u3_t2_h21 = 3;
0 <= u3_t3_h11 <= 1;
0 <= u3_t3_h12 <= 1;
0 <= u3_t3_h13 <= 1;
0 <= u3_t3_h14 <= 1;
0 <= u3_t3_h15 <= 1;
u3_t3_h11 + u3_t3_h12 + u3_t3_h13 + u3_t3_h14 + u3_t3_h15 = 2;
0 <= u3_t4_h2 <= 1;
0 <= u3_t4_h3 <= 1;
0 <= u3_t4_h4 <= 1;
0 <= u3_t4_h5 <= 1;
0 <= u3_t4_h6 <= 1;
0 <= u3_t4_h7 <= 1;
0 <= u3_t4_h8 <= 1;
0 <= u3_t4_h9 <= 1;
0 <= u3_t4_h10 <= 1;
0 <= u3_t4_h11 <= 1;
0 <= u3_t4_h12 <= 1;
0 <= u3_t4_h13 <= 1;
0 <= u3_t4_h14 <= 1;
0 <= u3_t4_h15 <= 1;
0 <= u3_t4_h16 <= 1;
0 <= u3_t4_h17 <= 1;
u3_t4_h2 + u3_t4_h3 + u3_t4_h4 + u3_t4_h5 + u3_t4_h6 + u3_t4_h7 + u3_t4_h8 + u3_t4_h9 + u3_t4_h10 + u3_t4_h11 + u3_t4_h12 + u3_t4_h13 + u3_t4_h14 + u3_t4_h15 + u3_t4_h16 + u3_t4_h17 = 3;
0 <= u3_t5_h13 <= 1;
0 <= u3_t5_h14 <= 1;
0 <= u3_t5_h15 <= 1;
0 <= u3_t5_h16 <= 1;
u3_t5_h13 + u3_t5_h14 + u3_t5_h15 + u3_t5_h16 = 2;
0 <= u3_t6_h10 <= 1;
0 <= u3_t6_h11 <= 1;
0 <= u3_t6_h12 <= 1;
0 <= u3_t6_h13 <= 1;
0 <= u3_t6_h14 <= 1;
0 <= u3_t6_h15 <= 1;
0 <= u3_t6_h16 <= 1;
0 <= u3_t6_h17 <= 1;
0 <= u3_t6_h18 <= 1;
u3_t6_h10 + u3_t6_h11 + u3_t6_h12 + u3_t6_h13 + u3_t6_h14 + u3_t6_h15 + u3_t6_h16 + u3_t6_h17 + u3_t6_h18 = 2;
0 <= u3_t7_h21 <= 1;
0 <= u3_t7_h22 <= 1;
0 <= u3_t7_h23 <= 1;
u3_t7_h21 + u3_t7_h22 + u3_t7_h23 = 2;
0 <= u3_t8_h20 <= 1;
0 <= u3_t8_h21 <= 1;
0 <= u3_t8_h22 <= 1;
0 <= u3_t8_h23 <= 1;
u3_t8_h20 + u3_t8_h21 + u3_t8_h22 + u3_t8_h23 = 1;
0 <= u3_t9_h7 <= 1;
0 <= u3_t9_h8 <= 1;
0 <= u3_t9_h9 <= 1;
0 <= u3_t9_h10 <= 1;
0 <= u3_t9_h11 <= 1;
0 <= u3_t9_h12 <= 1;
0 <= u3_t9_h13 <= 1;
0 <= u3_t9_h14 <= 1;
0 <= u3_t9_h15 <= 1;
0 <= u3_t9_h16 <= 1;
0 <= u3_t9_h17 <= 1;
0 <= u3_t9_h18 <= 1;
0 <= u3_t9_h19 <= 1;
0 <= u3_t9_h20 <= 1;
0 <= u3_t9_h21 <= 1;
u3_t9_h7 + u3_t9_h8 + u3_t9_h9 + u3_t9_h10 + u3_t9_h11 + u3_t9_h12 + u3_t9_h13 + u3_t9_h14 + u3_t9_h15 + u3_t9_h16 + u3_t9_h17 + u3_t9_h18 + u3_t9_h19 + u3_t9_h20 + u3_t9_h21 = 2;
0 <= u3_t10_h0 <= 1;
0 <= u3_t10_h1 <= 1;
0 <= u3_t10_h2 <= 1;
0 <= u3_t10_h3 <= 1;
0 <= u3_t10_h4 <= 1;
0 <= u3_t10_h5 <= 1;
0 <= u3_t10_h6 <= 1;
0 <= u3_t10_h7 <= 1;
u3_t10_h0 + u3_t10_h1 + u3_t10_h2 + u3_t10_h3 + u3_t10_h4 + u3_t10_h5 + u3_t10_h6 + u3_t10_h7 = 3;
